Route #1: 17 40 32 44 3 24 49 56 23 63 16 51
Route #2: 6 33 73 1 43 41 42 64 22 61 28 62
Route #3: 68 2 74 21 69 71 60 70 20 37 36 47 48 30
Route #4: 75 4 67
Route #5: 46 8 19 54 13 57 15 5 29 45 27 52 34
Route #6: 7 35 53 14 59 66 11 65 38
Route #7: 26 58 10 31 25 55 18 50 9 39 72 12
Cost 684
Time 0.367811
Tempo = 0.3805231000005733